(declare-sort sk2 0)
(declare-sort sk 0)
(declare-datatype list2 ((nil2) (cons2 (head2 sk) (tail2 list2))))
(declare-datatype Nat ((Z) (S (proj1-S Nat))))
(declare-datatype list ((nil) (cons (head Nat) (tail list))))
(declare-fun last (list) Nat)
(declare-fun lastOfTwo (list list) Nat)
(declare-fun ++ (list2 list2) list2)
(assert (= (last nil) Z))
(assert (forall ((y Nat)) (= (last (cons y nil)) y)))
(assert
  (forall ((y Nat) (x2 Nat) (x3 list))
    (= (last (cons y (cons x2 x3))) (last (cons x2 x3)))))
(assert (forall ((x list)) (= (lastOfTwo x nil) (last x))))
(assert
  (forall ((x list) (z Nat) (x2 list))
    (= (lastOfTwo x (cons z x2)) (last (cons z x2)))))
(assert (forall ((y list2)) (= (++ nil2 y) y)))
(assert
  (forall ((y list2) (z sk) (xs list2))
    (= (++ (cons2 z xs) y) (cons2 z (++ xs y)))))
